words_hard_train/6725.qaiger
aag 139 16 0 1 123
2
4
12
14
18
22
26
30
34
44
52
142
144
148
192
212
278
6 2 4
8 3 5
10 7 9
16 12 14
20 16 18
24 20 22
28 24 26
32 28 30
36 32 34
38 11 36
40 10 37
42 39 41
46 13 44
48 13 15
50 49 17
54 51 53
56 50 52
58 55 57
60 46 58
62 61 57
64 17 19
66 65 21
68 67 5
70 66 4
72 69 71
74 63 72
76 75 71
78 21 23
80 79 25
82 81 5
84 80 4
86 83 85
88 77 86
90 89 85
92 25 27
94 93 29
96 95 5
98 94 4
100 97 99
102 91 100
104 103 99
106 29 31
108 107 33
110 109 5
112 108 4
114 111 113
116 105 114
118 117 113
120 33 35
122 121 37
124 123 5
126 122 4
128 125 127
130 119 128
132 131 127
134 43 133
136 42 132
138 135 137
140 139 4
146 143 145
150 147 148
152 146 149
154 151 153
156 62 73
158 157 75
160 155 159
162 61 147
164 142 144
166 47 59
168 165 167
170 47 58
172 171 144
174 12 45
176 173 175
178 169 177
180 162 179
182 161 180
184 154 158
186 183 185
188 76 87
190 189 89
194 153 192
196 152 193
198 195 197
200 191 199
202 187 201
204 190 198
206 203 205
208 90 101
210 209 103
214 197 212
216 196 213
218 215 217
220 211 219
222 207 221
224 210 218
226 223 225
228 104 115
230 229 117
232 217 44
234 216 45
236 233 235
238 231 237
240 227 239
242 230 236
244 241 243
246 118 129
248 247 131
250 235 52
252 234 53
254 251 253
256 249 255
258 245 257
260 258 252
262 141 261
264 248 251
266 265 259
268 266 253
270 138 5
272 269 271
274 262 273
276 140 260
278 275 277
i0 2 y2[7]
i1 1 x1[7]
i2 2 y2[0]
i3 2 y2[1]
i4 2 y2[2]
i5 2 y2[3]
i6 2 y2[4]
i7 2 y2[5]
i8 2 y2[6]
i9 1 x1[5]
i10 1 x1[6]
i11 1 x1[0]
i12 1 x1[1]
i13 1 x1[2]
i14 1 x1[3]
i15 1 x1[4]
o0 bv[0]
c
simplified
  >=
    add
      >> 5
        1 x1
      add
        2 y2
        1
    1 x1
