words_hard_train/6725.qaiger.qdimacs
p cnf 139 370
a 96 2 71 72 74 106 22 26 0
e 1 3 4 5 6 7 8 9 10 11 12 13 14 15 16 17 18 19 20 21 23 24 25 27 28 29 30 31 32 33 34 35 36 37 38 39 40 41 42 43 44 45 46 47 48 49 50 51 52 53 54 55 56 57 58 59 60 61 62 63 64 65 66 67 68 69 70 73 75 76 77 78 79 80 81 82 83 84 85 86 87 88 89 90 91 92 93 94 95 97 98 99 100 101 102 103 104 105 107 108 109 110 111 112 113 114 115 116 117 118 119 120 121 122 123 124 125 126 127 128 129 130 131 132 133 134 135 136 137 138 139 0
-1 -2 3 0
1 -3 0
2 -3 0
1 2 4 0
-1 -4 0
-2 -4 0
3 4 5 0
-3 -5 0
-4 -5 0
-6 -7 8 0
6 -8 0
7 -8 0
-8 -9 10 0
8 -10 0
9 -10 0
-10 -11 12 0
10 -12 0
11 -12 0
-12 -13 14 0
12 -14 0
13 -14 0
-14 -15 16 0
14 -16 0
15 -16 0
-16 -17 18 0
16 -18 0
17 -18 0
5 -18 19 0
-5 -19 0
18 -19 0
-5 18 20 0
5 -20 0
-18 -20 0
19 20 21 0
-19 -21 0
-20 -21 0
6 -22 23 0
-6 -23 0
22 -23 0
6 7 24 0
-6 -24 0
-7 -24 0
24 8 25 0
-24 -25 0
-8 -25 0
25 26 27 0
-25 -27 0
-26 -27 0
-25 -26 28 0
25 -28 0
26 -28 0
27 28 29 0
-27 -29 0
-28 -29 0
-23 -29 30 0
23 -30 0
29 -30 0
30 28 31 0
-30 -31 0
-28 -31 0
8 9 32 0
-8 -32 0
-9 -32 0
32 10 33 0
-32 -33 0
-10 -33 0
33 2 34 0
-33 -34 0
-2 -34 0
-33 -2 35 0
33 -35 0
2 -35 0
34 35 36 0
-34 -36 0
-35 -36 0
31 -36 37 0
-31 -37 0
36 -37 0
37 35 38 0
-37 -38 0
-35 -38 0
10 11 39 0
-10 -39 0
-11 -39 0
39 12 40 0
-39 -40 0
-12 -40 0
40 2 41 0
-40 -41 0
-2 -41 0
-40 -2 42 0
40 -42 0
2 -42 0
41 42 43 0
-41 -43 0
-42 -43 0
38 -43 44 0
-38 -44 0
43 -44 0
44 42 45 0
-44 -45 0
-42 -45 0
12 13 46 0
-12 -46 0
-13 -46 0
46 14 47 0
-46 -47 0
-14 -47 0
47 2 48 0
-47 -48 0
-2 -48 0
-47 -2 49 0
47 -49 0
2 -49 0
48 49 50 0
-48 -50 0
-49 -50 0
45 -50 51 0
-45 -51 0
50 -51 0
51 49 52 0
-51 -52 0
-49 -52 0
14 15 53 0
-14 -53 0
-15 -53 0
53 16 54 0
-53 -54 0
-16 -54 0
54 2 55 0
-54 -55 0
-2 -55 0
-54 -2 56 0
54 -56 0
2 -56 0
55 56 57 0
-55 -57 0
-56 -57 0
52 -57 58 0
-52 -58 0
57 -58 0
58 56 59 0
-58 -59 0
-56 -59 0
16 17 60 0
-16 -60 0
-17 -60 0
60 18 61 0
-60 -61 0
-18 -61 0
61 2 62 0
-61 -62 0
-2 -62 0
-61 -2 63 0
61 -63 0
2 -63 0
62 63 64 0
-62 -64 0
-63 -64 0
59 -64 65 0
-59 -65 0
64 -65 0
65 63 66 0
-65 -66 0
-63 -66 0
21 66 67 0
-21 -67 0
-66 -67 0
-21 -66 68 0
21 -68 0
66 -68 0
67 68 69 0
-67 -69 0
-68 -69 0
69 -2 70 0
-69 -70 0
2 -70 0
71 72 73 0
-71 -73 0
-72 -73 0
73 -74 75 0
-73 -75 0
74 -75 0
-73 74 76 0
73 -76 0
-74 -76 0
75 76 77 0
-75 -77 0
-76 -77 0
-31 36 78 0
31 -78 0
-36 -78 0
78 37 79 0
-78 -79 0
-37 -79 0
77 79 80 0
-77 -80 0
-79 -80 0
30 73 81 0
-30 -81 0
-73 -81 0
-71 -72 82 0
71 -82 0
72 -82 0
23 29 83 0
-23 -83 0
-29 -83 0
82 83 84 0
-82 -84 0
-83 -84 0
23 -29 85 0
-23 -85 0
29 -85 0
85 -72 86 0
-85 -86 0
72 -86 0
-6 22 87 0
6 -87 0
-22 -87 0
86 87 88 0
-86 -88 0
-87 -88 0
84 88 89 0
-84 -89 0
-88 -89 0
-81 89 90 0
81 -90 0
-89 -90 0
80 -90 91 0
-80 -91 0
90 -91 0
-77 -79 92 0
77 -92 0
79 -92 0
91 92 93 0
-91 -93 0
-92 -93 0
-38 43 94 0
38 -94 0
-43 -94 0
94 44 95 0
-94 -95 0
-44 -95 0
76 -96 97 0
-76 -97 0
96 -97 0
-76 96 98 0
76 -98 0
-96 -98 0
97 98 99 0
-97 -99 0
-98 -99 0
95 99 100 0
-95 -100 0
-99 -100 0
93 100 101 0
-93 -101 0
-100 -101 0
-95 -99 102 0
95 -102 0
99 -102 0
101 102 103 0
-101 -103 0
-102 -103 0
-45 50 104 0
45 -104 0
-50 -104 0
104 51 105 0
-104 -105 0
-51 -105 0
98 -106 107 0
-98 -107 0
106 -107 0
-98 106 108 0
98 -108 0
-106 -108 0
107 108 109 0
-107 -109 0
-108 -109 0
105 109 110 0
-105 -110 0
-109 -110 0
103 110 111 0
-103 -111 0
-110 -111 0
-105 -109 112 0
105 -112 0
109 -112 0
111 112 113 0
-111 -113 0
-112 -113 0
-52 57 114 0
52 -114 0
-57 -114 0
114 58 115 0
-114 -115 0
-58 -115 0
108 -22 116 0
-108 -116 0
22 -116 0
-108 22 117 0
108 -117 0
-22 -117 0
116 117 118 0
-116 -118 0
-117 -118 0
115 118 119 0
-115 -119 0
-118 -119 0
113 119 120 0
-113 -120 0
-119 -120 0
-115 -118 121 0
115 -121 0
118 -121 0
120 121 122 0
-120 -122 0
-121 -122 0
-59 64 123 0
59 -123 0
-64 -123 0
123 65 124 0
-123 -124 0
-65 -124 0
117 -26 125 0
-117 -125 0
26 -125 0
-117 26 126 0
117 -126 0
-26 -126 0
125 126 127 0
-125 -127 0
-126 -127 0
124 127 128 0
-124 -128 0
-127 -128 0
122 128 129 0
-122 -129 0
-128 -129 0
-129 -126 130 0
129 -130 0
126 -130 0
70 130 131 0
-70 -131 0
-130 -131 0
-124 125 132 0
124 -132 0
-125 -132 0
132 129 133 0
-132 -133 0
-129 -133 0
-133 126 134 0
133 -134 0
-126 -134 0
-69 2 135 0
69 -135 0
-2 -135 0
134 135 136 0
-134 -136 0
-135 -136 0
-131 136 137 0
131 -137 0
-136 -137 0
-70 -130 138 0
70 -138 0
130 -138 0
137 138 139 0
-137 -139 0
-138 -139 0
139 0
